
===== New CPLEX run =====
Instance: /home/yorig/tuner/mpils-tests/instances/miplib/medium-1/neos-3024952-loue.mps
Config: /scratch/yorig/mpils-results-grid-seconds-10-no-mip-start/medium-1/4proc/seed-4/9_neos-3024952-loue_seed-4_20260503_044340/iterated_local_search/run_2_worker_2/ils_config_18430554602781047860.prm
========================

Selected objective sense:  MINIMIZE
Selected objective  name:  R3706
Selected RHS        name:  B
Selected bound      name:  BOUND
Version identifier: 22.1.2.0 | 2024-11-26 | 0edbb82fd
CPXPARAM_Threads                                 8
CPXPARAM_Parallel                                1
CPXPARAM_MIP_Cuts_Cliques                        2
CPXPARAM_MIP_Cuts_GUBCovers                      -1
CPXPARAM_MIP_Limits_GomoryCand                   800
CPXPARAM_MIP_Cuts_Gomory                         2
CPXPARAM_MIP_Cuts_PathCut                        1
CPXPARAM_MIP_Cuts_MIRCut                         -1
CPXPARAM_MIP_Cuts_Disjunctive                    1
CPXPARAM_Emphasis_MIP                            2
CPXPARAM_TimeLimit                               10
CPXPARAM_MIP_Limits_ProbeTime                    0
Tried aggregator 2 times.
MIP Presolve eliminated 40 rows and 0 columns.
MIP Presolve modified 80 coefficients.
Aggregator did 32 substitutions.
Reduced MIP has 3633 rows, 3223 columns, and 15906 nonzeros.
Reduced MIP has 0 binaries, 3223 generals, 0 SOSs, and 0 indicators.
Presolve time = 0.01 sec. (7.72 ticks)
Tried aggregator 1 time.
Detecting symmetries...
Reduced MIP has 3633 rows, 3223 columns, and 15906 nonzeros.
Reduced MIP has 0 binaries, 3223 generals, 0 SOSs, and 0 indicators.
Presolve time = 0.01 sec. (8.53 ticks)
MIP emphasis: optimality.
MIP search method: dynamic search.
Parallel mode: deterministic, using up to 8 threads.
Root relaxation solution time = 0.14 sec. (166.79 ticks)

        Nodes                                         Cuts/
   Node  Left     Objective  IInf  Best Integer    Best Bound    ItCnt     Gap

      0     0    22882.0000   397                  22882.0000     3901         
      0     0    23450.8669   670                   Cuts: 217     4562         
      0     0    23857.3094   766                   Cuts: 231     4892         
      0     0    24037.0179   742                   Cuts: 226     5118         
      0     0    24233.8689   874                   Cuts: 248     5319         
      0     0    24436.9551   974                   Cuts: 226     5533         
Detecting symmetries...
      0     0    24677.4504   909                   Cuts: 197     5770         
      0     0    24803.0835   982                   Cuts: 171     5931         
      0     0    24897.4507   967                   Cuts: 136     6071         
      0     0    24961.2282  1055                   Cuts: 129     6194         
      0     0    25029.8045   912                    Cuts: 69     6304         
      0     0    25037.4254   953                    Cuts: 37     6344         
      0     0    25074.3745   850                    Cuts: 48     6397         
      0     0    25082.7983   940                ZeroHalf: 24     6425         
      0     0    25093.2422   879                    Cuts: 28     6456         
      0     0    25096.5255   902                    Cuts: 21     6490         
      0     0    25111.6039  1042                ZeroHalf: 27     6537         
      0     0    25117.7655   913                    Cuts: 32     6570         
      0     0    25118.8493   922                    Cuts: 23     6594         
Detecting symmetries...
      0     2    25118.8493   922                  25118.8493     6594         
Elapsed time = 2.15 sec. (3376.17 ticks, tree = 0.02 MB, solutions = 0)
    296   240    25121.5564   895                  25118.8493     9427         
    667   605    25244.9947   625                  25118.8493    12922         
   1126  1051    25161.7790   682                  25118.8493    17921         
   1627  1503    25205.4784   713                  25118.8493    24086         
   2131  1982    25226.0930   726                  25118.8493    32322         
   2675  2608    25554.8410   593                  25118.8493    42165         
   3259  3090    25429.4298   607                  25118.8493    49705         
   3864  3625    26595.5576   368                  25118.8493    58970         
   4501  4151    26464.1901   392                  25118.8493    68103         
   7244  6830    28678.0714    88                  25118.8493   110227         
Elapsed time = 4.09 sec. (6479.26 ticks, tree = 20.42 MB, solutions = 0)
* 10059+ 9585                        29444.0000    25118.8493            14.69%
  10284  8975    25123.7364   835    29444.0000    25118.8493   145016   14.69%
  11324  9944    25292.4779   702    29444.0000    25118.8493   161871   14.69%
* 11758+10280                        29414.0000    25118.8493            14.60%
* 12099+ 8950                        29404.0000    25118.8493            14.57%
* 12162+ 8948                        29374.0000    25118.8493            14.49%

Performing restart 1

Repeating presolve.
Tried aggregator 1 time.
MIP Presolve modified 16 coefficients.
Reduced MIP has 3633 rows, 3223 columns, and 15892 nonzeros.
Reduced MIP has 0 binaries, 3223 generals, 0 SOSs, and 0 indicators.
Presolve time = 0.00 sec. (6.35 ticks)
Tried aggregator 1 time.
Reduced MIP has 3633 rows, 3223 columns, and 15892 nonzeros.
Reduced MIP has 0 binaries, 3223 generals, 0 SOSs, and 0 indicators.
Presolve time = 0.01 sec. (8.82 ticks)
Represolve time = 0.08 sec. (97.80 ticks)
* 12416+    0                        29154.0000    25123.5457            13.82%
  12416     0    25234.0487   956    29154.0000      Cuts: 75   186809   13.45%
* 12416+    0                        29124.0000    25234.0487            13.36%
  12416     0    25240.0190   969    29124.0000      Cuts: 26   186868   13.34%
  12416     0    25254.8405   796    29124.0000      Cuts: 36   186950   13.29%
  12416     0    25259.2880   902    29124.0000      Cuts: 20   186998   13.24%
  12416     0    25259.6808   954    29124.0000      Cuts: 11   187048   13.20%
  12416     0    25293.7831   916    29124.0000      Fract: 7   187074   13.15%
  12416     0    25321.1922   833    29124.0000       Cuts: 9   187109   13.06%
  12416     0    25329.0388   957    29124.0000      Cuts: 24   187163   13.03%
* 12416+    0                        29014.0000    25329.0388            12.70%
  12416     0    25337.0072   851    29014.0000      Cuts: 21   187216   12.67%
  12416     0    25390.3400   831    29014.0000      Cuts: 13   187292   12.49%
  12416     0    25397.3072   847    29014.0000      Cuts: 23   187325   12.47%
  12416     0    25399.1062   889    29014.0000      Cuts: 13   187341   12.46%
  12416     0    25400.1062   824    29014.0000   ZeroHalf: 3   187343   12.46%
  12416     0    25400.6062   889    29014.0000   ZeroHalf: 3   187344   12.45%
  12416     0    25401.0180   910    29014.0000   ZeroHalf: 5   187367   12.45%
  12416     0    25401.5180   956    29014.0000   ZeroHalf: 4   187369   12.45%
  12416     0    25401.6945   785    29014.0000   ZeroHalf: 2   187372   12.45%
  12416     0    25401.6945   767    29014.0000       Cuts: 4   187379   12.45%
  12416     0    25401.6945   767    29014.0000      Fract: 3   187380   12.45%
  12416     2    25401.6945   767    29014.0000    25401.6945   187380   12.45%
  12425    11    25408.9100   712    29014.0000    25401.6945   187419   12.45%
  12528    85    25537.2101   768    29014.0000    25403.7076   188385   12.44%
  13351   628    25942.8308   737    29014.0000    25403.7076   193279   12.44%

Clique cuts applied:  0
Flow path cuts applied:  0
Zero-half cuts applied:  110
Gomory fractional cuts applied:  146
Disjunctive cuts applied:  0
Cone linearizations applied:  0

Root node processing (before b&c):
  Real time             =    2.13 sec. (3373.10 ticks)
Parallel b&c, 8 threads:
  Real time             =    7.87 sec. (12486.09 ticks)
  Sync time (average)   =    0.75 sec.
  Wait time (average)   =    0.01 sec.
                          ------------
Total (root+branch&cut) =   10.00 sec. (15859.20 ticks)
Gap: 12.44%
Upper bound: 29014
Lower bound: 25403.7
End of CPLEX run. Time: 10.005 seconds

===== New CPLEX run =====
Instance: /home/yorig/tuner/mpils-tests/instances/miplib/medium-1/neos-3024952-loue.mps
Config: /scratch/yorig/mpils-results-grid-seconds-10-no-mip-start/medium-1/4proc/seed-4/9_neos-3024952-loue_seed-4_20260503_044340/iterated_local_search/run_2_worker_2/ils_config_14848244622743011893.prm
========================

Selected objective sense:  MINIMIZE
Selected objective  name:  R3706
Selected RHS        name:  B
Selected bound      name:  BOUND
Version identifier: 22.1.2.0 | 2024-11-26 | 0edbb82fd
CPXPARAM_Threads                                 8
CPXPARAM_Parallel                                1
CPXPARAM_MIP_Cuts_Cliques                        2
CPXPARAM_MIP_Cuts_GUBCovers                      -1
CPXPARAM_MIP_Limits_GomoryCand                   800
CPXPARAM_MIP_Cuts_Gomory                         2
CPXPARAM_MIP_Cuts_PathCut                        1
CPXPARAM_MIP_Cuts_MIRCut                         -1
CPXPARAM_MIP_Cuts_Disjunctive                    1
CPXPARAM_Emphasis_MIP                            2
CPXPARAM_TimeLimit                               10
CPXPARAM_MIP_Limits_ProbeTime                    30
Tried aggregator 2 times.
MIP Presolve eliminated 40 rows and 0 columns.
MIP Presolve modified 80 coefficients.
Aggregator did 32 substitutions.
Reduced MIP has 3633 rows, 3223 columns, and 15906 nonzeros.
Reduced MIP has 0 binaries, 3223 generals, 0 SOSs, and 0 indicators.
Presolve time = 0.01 sec. (7.72 ticks)
Tried aggregator 1 time.
Detecting symmetries...
Reduced MIP has 3633 rows, 3223 columns, and 15906 nonzeros.
Reduced MIP has 0 binaries, 3223 generals, 0 SOSs, and 0 indicators.
Presolve time = 0.01 sec. (8.53 ticks)
MIP emphasis: optimality.
MIP search method: dynamic search.
Parallel mode: deterministic, using up to 8 threads.
Root relaxation solution time = 0.13 sec. (166.79 ticks)

        Nodes                                         Cuts/
   Node  Left     Objective  IInf  Best Integer    Best Bound    ItCnt     Gap

      0     0    22882.0000   397                  22882.0000     3901         
      0     0    23450.8669   670                   Cuts: 217     4562         
      0     0    23857.3094   766                   Cuts: 231     4892         
      0     0    24037.0179   742                   Cuts: 226     5118         
      0     0    24233.8689   874                   Cuts: 248     5319         
      0     0    24436.9551   974                   Cuts: 226     5533         
Detecting symmetries...
      0     0    24677.4504   909                   Cuts: 197     5770         
      0     0    24803.0835   982                   Cuts: 171     5931         
      0     0    24897.4507   967                   Cuts: 136     6071         
      0     0    24961.2282  1055                   Cuts: 129     6194         
      0     0    25029.8045   912                    Cuts: 69     6304         
      0     0    25037.4254   953                    Cuts: 37     6344         
      0     0    25074.3745   850                    Cuts: 48     6397         
      0     0    25082.7983   940                ZeroHalf: 24     6425         
      0     0    25093.2422   879                    Cuts: 28     6456         
      0     0    25096.5255   902                    Cuts: 21     6490         
      0     0    25111.6039  1042                ZeroHalf: 27     6537         
      0     0    25117.7655   913                    Cuts: 32     6570         
      0     0    25118.8493   922                    Cuts: 23     6594         
Detecting symmetries...
      0     2    25118.8493   922                  25118.8493     6594         
Elapsed time = 2.14 sec. (3376.50 ticks, tree = 0.02 MB, solutions = 0)
    296   240    25121.5564   895                  25118.8493     9427         
    667   605    25244.9947   625                  25118.8493    12922         
   1126  1051    25161.7790   682                  25118.8493    17921         
   1627  1503    25205.4784   713                  25118.8493    24086         
   2131  1982    25226.0930   726                  25118.8493    32322         
   2675  2608    25554.8410   593                  25118.8493    42165         
   3259  3090    25429.4298   607                  25118.8493    49705         
   3864  3625    26595.5576   368                  25118.8493    58970         
   4501  4151    26464.1901   392                  25118.8493    68103         
   7244  6830    28678.0714    88                  25118.8493   110227         
Elapsed time = 4.08 sec. (6479.59 ticks, tree = 20.42 MB, solutions = 0)
* 10059+ 9585                        29444.0000    25118.8493            14.69%
  10284  8975    25123.7364   835    29444.0000    25118.8493   145016   14.69%
  11324  9944    25292.4779   702    29444.0000    25118.8493   161871   14.69%
* 11758+10280                        29414.0000    25118.8493            14.60%
* 12099+ 8950                        29404.0000    25118.8493            14.57%
* 12162+ 8948                        29374.0000    25118.8493            14.49%

Performing restart 1

Repeating presolve.
Tried aggregator 1 time.
MIP Presolve modified 16 coefficients.
Reduced MIP has 3633 rows, 3223 columns, and 15892 nonzeros.
Reduced MIP has 0 binaries, 3223 generals, 0 SOSs, and 0 indicators.
Presolve time = 0.00 sec. (6.35 ticks)
Tried aggregator 1 time.
Reduced MIP has 3633 rows, 3223 columns, and 15892 nonzeros.
Reduced MIP has 0 binaries, 3223 generals, 0 SOSs, and 0 indicators.
Presolve time = 0.01 sec. (8.82 ticks)
Represolve time = 0.08 sec. (97.90 ticks)
* 12416+    0                        29154.0000    25123.5457            13.82%
  12416     0    25234.0487   956    29154.0000      Cuts: 75   186809   13.45%
* 12416+    0                        29124.0000    25234.0487            13.36%
  12416     0    25240.0190   969    29124.0000      Cuts: 26   186868   13.34%
  12416     0    25254.8405   796    29124.0000      Cuts: 36   186950   13.29%
  12416     0    25259.2880   902    29124.0000      Cuts: 20   186998   13.24%
  12416     0    25259.6808   954    29124.0000      Cuts: 11   187048   13.20%
  12416     0    25293.7831   916    29124.0000      Fract: 7   187074   13.15%
  12416     0    25321.1922   833    29124.0000       Cuts: 9   187109   13.06%
  12416     0    25329.0388   957    29124.0000      Cuts: 24   187163   13.03%
* 12416+    0                        29014.0000    25329.0388            12.70%
  12416     0    25337.0072   851    29014.0000      Cuts: 21   187216   12.67%
  12416     0    25390.3400   831    29014.0000      Cuts: 13   187292   12.49%
  12416     0    25397.3072   847    29014.0000      Cuts: 23   187325   12.47%
  12416     0    25399.1062   889    29014.0000      Cuts: 13   187341   12.46%
  12416     0    25400.1062   824    29014.0000   ZeroHalf: 3   187343   12.46%
  12416     0    25400.6062   889    29014.0000   ZeroHalf: 3   187344   12.45%
  12416     0    25401.0180   910    29014.0000   ZeroHalf: 5   187367   12.45%
  12416     0    25401.5180   956    29014.0000   ZeroHalf: 4   187369   12.45%
  12416     0    25401.6945   785    29014.0000   ZeroHalf: 2   187372   12.45%
  12416     0    25401.6945   767    29014.0000       Cuts: 4   187379   12.45%
  12416     0    25401.6945   767    29014.0000      Fract: 3   187380   12.45%
  12416     2    25401.6945   767    29014.0000    25401.6945   187380   12.45%
  12425    11    25408.9100   712    29014.0000    25401.6945   187419   12.45%
  12528    85    25537.2101   768    29014.0000    25403.7076   188385   12.44%
  13351   628    25942.8308   737    29014.0000    25403.7076   193279   12.44%

Clique cuts applied:  0
Flow path cuts applied:  0
Zero-half cuts applied:  110
Gomory fractional cuts applied:  146
Disjunctive cuts applied:  0
Cone linearizations applied:  0

Root node processing (before b&c):
  Real time             =    2.13 sec. (3373.43 ticks)
Parallel b&c, 8 threads:
  Real time             =    7.87 sec. (12496.31 ticks)
  Sync time (average)   =    0.75 sec.
  Wait time (average)   =    0.01 sec.
                          ------------
Total (root+branch&cut) =   10.00 sec. (15869.74 ticks)
Gap: 12.44%
Upper bound: 29014
Lower bound: 25403.7
End of CPLEX run. Time: 10.0041 seconds

===== New CPLEX run =====
Instance: /home/yorig/tuner/mpils-tests/instances/miplib/medium-1/neos-3024952-loue.mps
Config: /scratch/yorig/mpils-results-grid-seconds-10-no-mip-start/medium-1/4proc/seed-4/9_neos-3024952-loue_seed-4_20260503_044340/iterated_local_search/run_2_worker_2/ils_config_5646524357782166072.prm
========================

Selected objective sense:  MINIMIZE
Selected objective  name:  R3706
Selected RHS        name:  B
Selected bound      name:  BOUND
Version identifier: 22.1.2.0 | 2024-11-26 | 0edbb82fd
CPXPARAM_Threads                                 8
CPXPARAM_Parallel                                1
CPXPARAM_MIP_Cuts_Cliques                        1
CPXPARAM_MIP_Cuts_GUBCovers                      -1
CPXPARAM_MIP_Limits_GomoryCand                   800
CPXPARAM_MIP_Cuts_Gomory                         2
CPXPARAM_MIP_Cuts_PathCut                        1
CPXPARAM_MIP_Cuts_MIRCut                         -1
CPXPARAM_MIP_Cuts_Disjunctive                    1
CPXPARAM_Emphasis_MIP                            2
CPXPARAM_TimeLimit                               10
CPXPARAM_MIP_Limits_ProbeTime                    0
Tried aggregator 2 times.
MIP Presolve eliminated 40 rows and 0 columns.
MIP Presolve modified 80 coefficients.
Aggregator did 32 substitutions.
Reduced MIP has 3633 rows, 3223 columns, and 15906 nonzeros.
Reduced MIP has 0 binaries, 3223 generals, 0 SOSs, and 0 indicators.
Presolve time = 0.01 sec. (7.72 ticks)
Tried aggregator 1 time.
Detecting symmetries...
Reduced MIP has 3633 rows, 3223 columns, and 15906 nonzeros.
Reduced MIP has 0 binaries, 3223 generals, 0 SOSs, and 0 indicators.
Presolve time = 0.01 sec. (8.53 ticks)
MIP emphasis: optimality.
MIP search method: dynamic search.
Parallel mode: deterministic, using up to 8 threads.
Root relaxation solution time = 0.13 sec. (166.79 ticks)

        Nodes                                         Cuts/
   Node  Left     Objective  IInf  Best Integer    Best Bound    ItCnt     Gap

      0     0    22882.0000   397                  22882.0000     3901         
      0     0    23450.8669   670                   Cuts: 217     4562         
      0     0    23857.3094   766                   Cuts: 231     4892         
      0     0    24037.0179   742                   Cuts: 226     5118         
      0     0    24233.8689   874                   Cuts: 248     5319         
      0     0    24436.9551   974                   Cuts: 226     5533         
Detecting symmetries...
      0     0    24677.4504   909                   Cuts: 197     5770         
      0     0    24803.0835   982                   Cuts: 171     5931         
      0     0    24897.4507   967                   Cuts: 136     6071         
      0     0    24961.2282  1055                   Cuts: 129     6194         
      0     0    25029.8045   912                    Cuts: 69     6304         
      0     0    25037.4254   953                    Cuts: 37     6344         
      0     0    25074.3745   850                    Cuts: 48     6397         
      0     0    25082.7983   940                ZeroHalf: 24     6425         
      0     0    25093.2422   879                    Cuts: 28     6456         
      0     0    25096.5255   902                    Cuts: 21     6490         
      0     0    25111.6039  1042                ZeroHalf: 27     6537         
      0     0    25117.7655   913                    Cuts: 32     6570         
      0     0    25118.8493   922                    Cuts: 23     6594         
Detecting symmetries...
      0     2    25118.8493   922                  25118.8493     6594         
Elapsed time = 2.14 sec. (3376.17 ticks, tree = 0.02 MB, solutions = 0)
    296   240    25121.5564   895                  25118.8493     9427         
    667   605    25244.9947   625                  25118.8493    12922         
   1126  1051    25161.7790   682                  25118.8493    17921         
   1627  1503    25205.4784   713                  25118.8493    24086         
   2131  1982    25226.0930   726                  25118.8493    32322         
   2675  2608    25554.8410   593                  25118.8493    42165         
   3259  3090    25429.4298   607                  25118.8493    49705         
   3864  3625    26595.5576   368                  25118.8493    58970         
   4501  4151    26464.1901   392                  25118.8493    68103         
   7244  6830    28678.0714    88                  25118.8493   110227         
Elapsed time = 4.08 sec. (6479.24 ticks, tree = 20.42 MB, solutions = 0)
* 10059+ 9585                        29444.0000    25118.8493            14.69%
  10284  8975    25123.7364   835    29444.0000    25118.8493   145016   14.69%
  11324  9944    25292.4779   702    29444.0000    25118.8493   161871   14.69%
* 11758+10280                        29414.0000    25118.8493            14.60%
* 12099+ 8950                        29404.0000    25118.8493            14.57%
* 12163+ 8948                        29374.0000    25118.8493            14.49%

Performing restart 1

Repeating presolve.
Tried aggregator 1 time.
MIP Presolve modified 16 coefficients.
Reduced MIP has 3633 rows, 3223 columns, and 15892 nonzeros.
Reduced MIP has 0 binaries, 3223 generals, 0 SOSs, and 0 indicators.
Presolve time = 0.00 sec. (6.35 ticks)
Tried aggregator 1 time.
Reduced MIP has 3633 rows, 3223 columns, and 15892 nonzeros.
Reduced MIP has 0 binaries, 3223 generals, 0 SOSs, and 0 indicators.
Presolve time = 0.01 sec. (8.82 ticks)
Represolve time = 0.08 sec. (97.80 ticks)
* 12417+    0                        29154.0000    25123.5457            13.82%
  12417     0    25234.0487   956    29154.0000      Cuts: 75   186864   13.45%
* 12417+    0                        29124.0000    25234.0487            13.36%
  12417     0    25240.0190   969    29124.0000      Cuts: 26   186923   13.34%
  12417     0    25254.8405   796    29124.0000      Cuts: 36   187005   13.29%
  12417     0    25259.2880   902    29124.0000      Cuts: 20   187053   13.24%
  12417     0    25259.6808   954    29124.0000      Cuts: 11   187103   13.20%
  12417     0    25293.7831   916    29124.0000      Fract: 7   187129   13.15%
  12417     0    25321.1922   833    29124.0000       Cuts: 9   187164   13.06%
  12417     0    25329.0388   957    29124.0000      Cuts: 24   187218   13.03%
* 12417+    0                        29014.0000    25329.0388            12.70%
  12417     0    25337.0072   851    29014.0000      Cuts: 21   187271   12.67%
  12417     0    25390.3400   831    29014.0000      Cuts: 13   187347   12.49%
  12417     0    25397.3072   847    29014.0000      Cuts: 23   187380   12.47%
  12417     0    25399.1062   889    29014.0000      Cuts: 13   187396   12.46%
  12417     0    25400.1062   824    29014.0000   ZeroHalf: 3   187398   12.46%
  12417     0    25400.6062   889    29014.0000   ZeroHalf: 3   187399   12.45%
  12417     0    25401.0180   910    29014.0000   ZeroHalf: 5   187422   12.45%
  12417     0    25401.5180   956    29014.0000   ZeroHalf: 4   187424   12.45%
  12417     0    25401.6945   785    29014.0000   ZeroHalf: 2   187427   12.45%
  12417     0    25401.6945   767    29014.0000       Cuts: 4   187434   12.45%
  12417     0    25401.6945   767    29014.0000      Fract: 3   187435   12.45%
  12417     2    25401.6945   767    29014.0000    25401.6945   187435   12.45%
  12426    11    25408.9100   712    29014.0000    25401.6945   187474   12.45%
  12529    85    25537.2101   768    29014.0000    25403.7076   188440   12.44%
  13352   628    25942.8308   737    29014.0000    25403.7076   193334   12.44%

Clique cuts applied:  0
Flow path cuts applied:  0
Zero-half cuts applied:  110
Gomory fractional cuts applied:  146
Disjunctive cuts applied:  0
Cone linearizations applied:  0

Root node processing (before b&c):
  Real time             =    2.13 sec. (3373.10 ticks)
Parallel b&c, 8 threads:
  Real time             =    7.88 sec. (12506.01 ticks)
  Sync time (average)   =    0.75 sec.
  Wait time (average)   =    0.01 sec.
                          ------------
Total (root+branch&cut) =   10.01 sec. (15879.11 ticks)
Gap: 12.44%
Upper bound: 29014
Lower bound: 25403.7
End of CPLEX run. Time: 10.0064 seconds

===== New CPLEX run =====
Instance: /home/yorig/tuner/mpils-tests/instances/miplib/medium-1/neos-3024952-loue.mps
Config: /scratch/yorig/mpils-results-grid-seconds-10-no-mip-start/medium-1/4proc/seed-4/9_neos-3024952-loue_seed-4_20260503_044340/iterated_local_search/run_2_worker_2/ils_config_12214391379781758828.prm
========================

Selected objective sense:  MINIMIZE
Selected objective  name:  R3706
Selected RHS        name:  B
Selected bound      name:  BOUND
Version identifier: 22.1.2.0 | 2024-11-26 | 0edbb82fd
CPXPARAM_Threads                                 8
CPXPARAM_Parallel                                1
CPXPARAM_MIP_Cuts_Cliques                        2
CPXPARAM_MIP_Cuts_GUBCovers                      -1
CPXPARAM_MIP_Limits_GomoryCand                   800
CPXPARAM_MIP_Cuts_Gomory                         2
CPXPARAM_MIP_Cuts_PathCut                        1
CPXPARAM_MIP_Cuts_MIRCut                         -1
CPXPARAM_MIP_Cuts_Disjunctive                    1
CPXPARAM_Emphasis_MIP                            5
CPXPARAM_TimeLimit                               10
CPXPARAM_MIP_Limits_ProbeTime                    0
Tried aggregator 2 times.
MIP Presolve eliminated 40 rows and 0 columns.
MIP Presolve modified 80 coefficients.
Aggregator did 32 substitutions.
Reduced MIP has 3633 rows, 3223 columns, and 15906 nonzeros.
Reduced MIP has 0 binaries, 3223 generals, 0 SOSs, and 0 indicators.
Presolve time = 0.01 sec. (7.72 ticks)
Tried aggregator 1 time.
Detecting symmetries...
Reduced MIP has 3633 rows, 3223 columns, and 15906 nonzeros.
Reduced MIP has 0 binaries, 3223 generals, 0 SOSs, and 0 indicators.
Presolve time = 0.01 sec. (8.53 ticks)
MIP emphasis: heuristic.
MIP search method: dynamic search.
Parallel mode: deterministic, using up to 8 threads.
Root relaxation solution time = 0.13 sec. (166.79 ticks)

        Nodes                                         Cuts/
   Node  Left     Objective  IInf  Best Integer    Best Bound    ItCnt     Gap

      0     0    22882.0000   397                  22882.0000     3901         
      0     0    23450.8669   670                   Cuts: 217     4562         
      0     0    24494.3791   914                   Cuts: 303     5013         
*     0+    0                        30540.0000    24945.9918            18.32%
*     0+    0                        30520.0000    24945.9918            18.26%
      0     0    24595.5328   993    30520.0000     Cuts: 161     5158   18.26%
*     0+    0                        30235.0000    24945.9918            17.49%
      0     0  -1.00000e+75     0    30235.0000    24945.9918     5158   17.49%
      0     0    24619.2006  1028    30235.0000      Cuts: 99     5306   17.49%
*     0+    0                        30164.0000    24945.9918            17.30%
      0     0    24722.3437   967    30164.0000      Cuts: 78     5477   17.30%
Detecting symmetries...
*     0+    0                        29994.0000    24945.9918            16.83%
      0     0    24852.2639   984    29994.0000      Cuts: 90     5610   16.83%
*     0+    0                        29720.0000    24945.9918            16.06%
      0     0    24903.5803  1088    29720.0000      Cuts: 67     5704   16.06%
*     0+    0                        29250.0000    24945.9918            14.71%
      0     0    24934.5267  1152    29250.0000      Cuts: 57     5815   14.71%
*     0+    0                        29120.0000    24945.9918            14.33%
      0     0  -1.00000e+75     0    29120.0000    24945.9918     5815   14.33%
*     0+    0                        28598.0000    24945.9918            12.77%
      0     0    25014.7727  1018    28598.0000      Cuts: 48     5879   12.53%
*     0+    0                        28322.0000    25014.7727            11.68%
      0     0    25025.7136  1063    28322.0000      Cuts: 31     5930   11.64%
Advanced basis not built.

Clique cuts applied:  0
Flow path cuts applied:  0
Zero-half cuts applied:  101
Gomory fractional cuts applied:  131
Disjunctive cuts applied:  0
Cone linearizations applied:  0

Root node processing (before b&c):
  Real time             =   10.01 sec. (18782.34 ticks)
Parallel b&c, 8 threads:
  Real time             =    0.00 sec. (0.00 ticks)
  Sync time (average)   =    0.00 sec.
  Wait time (average)   =    0.00 sec.
                          ------------
Total (root+branch&cut) =   10.01 sec. (18782.34 ticks)
Gap: 11.64%
Upper bound: 28322
Lower bound: 25025.7
End of CPLEX run. Time: 10.0085 seconds

===== New CPLEX run =====
Instance: /home/yorig/tuner/mpils-tests/instances/miplib/medium-1/neos-3024952-loue.mps
Config: /scratch/yorig/mpils-results-grid-seconds-10-no-mip-start/medium-1/4proc/seed-4/9_neos-3024952-loue_seed-4_20260503_044340/iterated_local_search/run_2_worker_2/ils_config_2523658255524214514.prm
========================

Selected objective sense:  MINIMIZE
Selected objective  name:  R3706
Selected RHS        name:  B
Selected bound      name:  BOUND
Version identifier: 22.1.2.0 | 2024-11-26 | 0edbb82fd
CPXPARAM_Threads                                 8
CPXPARAM_Parallel                                1
CPXPARAM_MIP_Cuts_Cliques                        2
CPXPARAM_MIP_Cuts_GUBCovers                      -1
CPXPARAM_MIP_Limits_GomoryCand                   800
CPXPARAM_MIP_Cuts_PathCut                        1
CPXPARAM_MIP_Cuts_MIRCut                         -1
CPXPARAM_MIP_Cuts_Disjunctive                    1
CPXPARAM_Emphasis_MIP                            5
CPXPARAM_TimeLimit                               10
CPXPARAM_MIP_Limits_ProbeTime                    0
Tried aggregator 2 times.
MIP Presolve eliminated 40 rows and 0 columns.
MIP Presolve modified 80 coefficients.
Aggregator did 32 substitutions.
Reduced MIP has 3633 rows, 3223 columns, and 15906 nonzeros.
Reduced MIP has 0 binaries, 3223 generals, 0 SOSs, and 0 indicators.
Presolve time = 0.01 sec. (7.72 ticks)
Tried aggregator 1 time.
Detecting symmetries...
Reduced MIP has 3633 rows, 3223 columns, and 15906 nonzeros.
Reduced MIP has 0 binaries, 3223 generals, 0 SOSs, and 0 indicators.
Presolve time = 0.01 sec. (8.53 ticks)
MIP emphasis: heuristic.
MIP search method: dynamic search.
Parallel mode: deterministic, using up to 8 threads.
Root relaxation solution time = 0.13 sec. (166.79 ticks)

        Nodes                                         Cuts/
   Node  Left     Objective  IInf  Best Integer    Best Bound    ItCnt     Gap

      0     0    22882.0000   397                  22882.0000     3901         
      0     0    23450.8669   670                   Cuts: 217     4562         
      0     0    24386.3418   905                   Cuts: 207     4953         
*     0+    0                        30540.0000    24903.7125            18.46%
*     0+    0                        30520.0000    24903.7125            18.40%
      0     0    24475.0407   962    30520.0000      Cuts: 72     5003   18.40%
*     0+    0                        30274.0000    24903.7125            17.74%
      0     0  -1.00000e+75     0    30274.0000    24903.7125     5003   17.74%
      0     0    24504.8039   958    30274.0000      Cuts: 64     5036   17.74%
      0     0    24568.0015  1049    30274.0000      Cuts: 65     5101   17.74%
Detecting symmetries...
*     0+    0                        30234.0000    24903.7125            17.63%
      0     0    24604.2023  1074    30234.0000      Cuts: 58     5125   17.63%
*     0+    0                        29964.0000    24903.7125            16.89%
      0     0    24745.4353  1012    29964.0000  ZeroHalf: 54     5200   16.89%
*     0+    0                        29924.0000    24903.7125            16.78%
      0     0    24776.0607  1194    29924.0000  ZeroHalf: 53     5251   16.78%
*     0+    0                        28904.0000    24903.7125            13.84%
      0     0    24860.6296  1077    28904.0000      Cuts: 50     5318   13.84%
      0     0    24950.7670   927    28904.0000      Cuts: 42     5390   13.68%
*     0+    0                        28714.0000    24950.7670            13.11%
      0     0    24959.1144  1020    28714.0000      Cuts: 28     5442   13.08%
Advanced basis not built.

Clique cuts applied:  0
Flow path cuts applied:  0
Zero-half cuts applied:  167
Gomory fractional cuts applied:  86
Disjunctive cuts applied:  0
Cone linearizations applied:  0

Root node processing (before b&c):
  Real time             =   10.05 sec. (18878.00 ticks)
Parallel b&c, 8 threads:
  Real time             =    0.00 sec. (0.00 ticks)
  Sync time (average)   =    0.00 sec.
  Wait time (average)   =    0.00 sec.
                          ------------
Total (root+branch&cut) =   10.05 sec. (18878.00 ticks)
Gap: 13.08%
Upper bound: 28714
Lower bound: 24959.1
End of CPLEX run. Time: 10.0532 seconds

===== New CPLEX run =====
Instance: /home/yorig/tuner/mpils-tests/instances/miplib/medium-1/neos-3024952-loue.mps
Config: /scratch/yorig/mpils-results-grid-seconds-10-no-mip-start/medium-1/4proc/seed-4/9_neos-3024952-loue_seed-4_20260503_044340/iterated_local_search/run_2_worker_2/ils_config_18271313050275578992.prm
========================

Selected objective sense:  MINIMIZE
Selected objective  name:  R3706
Selected RHS        name:  B
Selected bound      name:  BOUND
Version identifier: 22.1.2.0 | 2024-11-26 | 0edbb82fd
CPXPARAM_Threads                                 8
CPXPARAM_Parallel                                1
CPXPARAM_MIP_Cuts_Cliques                        -1
CPXPARAM_MIP_Cuts_GUBCovers                      -1
CPXPARAM_MIP_Limits_GomoryCand                   800
CPXPARAM_MIP_Cuts_Gomory                         2
CPXPARAM_MIP_Cuts_PathCut                        1
CPXPARAM_MIP_Cuts_MIRCut                         -1
CPXPARAM_MIP_Cuts_Disjunctive                    1
CPXPARAM_Emphasis_MIP                            5
CPXPARAM_TimeLimit                               10
CPXPARAM_MIP_Limits_ProbeTime                    0
Tried aggregator 2 times.
MIP Presolve eliminated 40 rows and 0 columns.
MIP Presolve modified 80 coefficients.
Aggregator did 32 substitutions.
Reduced MIP has 3633 rows, 3223 columns, and 15906 nonzeros.
Reduced MIP has 0 binaries, 3223 generals, 0 SOSs, and 0 indicators.
Presolve time = 0.01 sec. (7.72 ticks)
Tried aggregator 1 time.
Detecting symmetries...
Reduced MIP has 3633 rows, 3223 columns, and 15906 nonzeros.
Reduced MIP has 0 binaries, 3223 generals, 0 SOSs, and 0 indicators.
Presolve time = 0.01 sec. (8.53 ticks)
MIP emphasis: heuristic.
MIP search method: dynamic search.
Parallel mode: deterministic, using up to 8 threads.
Root relaxation solution time = 0.13 sec. (166.79 ticks)

        Nodes                                         Cuts/
   Node  Left     Objective  IInf  Best Integer    Best Bound    ItCnt     Gap

      0     0    22882.0000   397                  22882.0000     3901         
      0     0    23450.8669   670                   Cuts: 217     4562         
      0     0    24494.3791   914                   Cuts: 303     5013         
*     0+    0                        30540.0000    24945.9918            18.32%
*     0+    0                        30520.0000    24945.9918            18.26%
      0     0    24595.5328   993    30520.0000     Cuts: 161     5158   18.26%
*     0+    0                        30235.0000    24945.9918            17.49%
      0     0  -1.00000e+75     0    30235.0000    24945.9918     5158   17.49%
      0     0    24619.2006  1028    30235.0000      Cuts: 99     5306   17.49%
*     0+    0                        30164.0000    24945.9918            17.30%
      0     0    24722.3437   967    30164.0000      Cuts: 78     5477   17.30%
Detecting symmetries...
*     0+    0                        29994.0000    24945.9918            16.83%
      0     0    24852.2639   984    29994.0000      Cuts: 90     5610   16.83%
*     0+    0                        29720.0000    24945.9918            16.06%
      0     0    24903.5803  1088    29720.0000      Cuts: 67     5704   16.06%
*     0+    0                        29250.0000    24945.9918            14.71%
      0     0    24934.5267  1152    29250.0000      Cuts: 57     5815   14.71%
*     0+    0                        29120.0000    24945.9918            14.33%
      0     0  -1.00000e+75     0    29120.0000    24945.9918     5815   14.33%
*     0+    0                        28598.0000    24945.9918            12.77%
      0     0    25014.7727  1018    28598.0000      Cuts: 48     5879   12.53%
*     0+    0                        28322.0000    25014.7727            11.68%
      0     0    25025.7136  1063    28322.0000      Cuts: 31     5930   11.64%
Advanced basis not built.

Flow path cuts applied:  0
Zero-half cuts applied:  101
Gomory fractional cuts applied:  131
Disjunctive cuts applied:  0
Cone linearizations applied:  0

Root node processing (before b&c):
  Real time             =   10.01 sec. (18762.12 ticks)
Parallel b&c, 8 threads:
  Real time             =    0.00 sec. (0.00 ticks)
  Sync time (average)   =    0.00 sec.
  Wait time (average)   =    0.00 sec.
                          ------------
Total (root+branch&cut) =   10.01 sec. (18762.12 ticks)
Gap: 11.64%
Upper bound: 28322
Lower bound: 25025.7
End of CPLEX run. Time: 10.0141 seconds
